Route #1: 18 5 50 39 7 28 4 43
Route #2: 35 15 10 17 1 29 23
Route #3: 20 49 36 45 26 21 33 9 38
Route #4: 13 22 3 53 44
Route #5: 32 37 48 40 31 8 19 11
Route #6: 14 2 12 27 6 16
Route #7: 52 34 41 46 42 24 51 47 25 30
Cost 1168
Time 0.11208
